(set-logic ALL)
(set-option :produce-models true)
(declare-sort BoundSet 0)
(declare-sort UnboundSet 0)
(set-option :finite-model-find true)
(declare-fun IsRecent (BoundSet) Bool)
(declare-fun HasCropProductionRecords (BoundSet) Bool)
(declare-fun IsInDollars (BoundSet) Bool)
(declare-fun HasNewEconomicBenefits (BoundSet) Bool)
(declare-fun HasNewHumanWelfareBenefits (BoundSet) Bool)
(declare-fun IsEachYear (BoundSet) Bool)
(assert (not (=> (exists ((a BoundSet)) (exists ((b BoundSet)) (and (IsRecent a) (HasCropProductionRecords b)))) (exists ((e BoundSet)) (exists ((c BoundSet)) (exists ((f BoundSet)) (exists ((d BoundSet)) (and (IsInDollars c) (and (and (HasNewEconomicBenefits d) (HasNewHumanWelfareBenefits e)) (IsEachYear f))))))))))
(check-sat)
(get-model)